c *********************************
c * Circuit generated by BenCGen
c *
c * CarryLookaheadBlock_32_32_32_InOutT
c *
c * Ports with 1 gate(s): 2
c * Ports with 2 gate(s): 137
c * Ports with 3 gate(s): 32
c * Ports with 4 gate(s): 24
c * Ports with 5 gate(s): 16
c * Total gates: 211
c *********************************
p cnf 275 823
1 99 0
-1 -99 0
1 -98 0
99 -98 0
-1 -99 98 0
1 33 -100 0
-1 33 100 0
1 -33 100 0
-1 -33 -100 0
1 -132 0
33 -132 0
-1 -33 132 0
2 34 -101 0
-2 34 101 0
2 -34 101 0
-2 -34 -101 0
2 -133 0
34 -133 0
-2 -34 133 0
3 35 -102 0
-3 35 102 0
3 -35 102 0
-3 -35 -102 0
3 -134 0
35 -134 0
-3 -35 134 0
4 36 -103 0
-4 36 103 0
4 -36 103 0
-4 -36 -103 0
4 -135 0
36 -135 0
-4 -36 135 0
5 37 -104 0
-5 37 104 0
5 -37 104 0
-5 -37 -104 0
5 -136 0
37 -136 0
-5 -37 136 0
6 38 -105 0
-6 38 105 0
6 -38 105 0
-6 -38 -105 0
6 -137 0
38 -137 0
-6 -38 137 0
7 39 -106 0
-7 39 106 0
7 -39 106 0
-7 -39 -106 0
7 -138 0
39 -138 0
-7 -39 138 0
8 40 -107 0
-8 40 107 0
8 -40 107 0
-8 -40 -107 0
8 -139 0
40 -139 0
-8 -40 139 0
9 41 -108 0
-9 41 108 0
9 -41 108 0
-9 -41 -108 0
9 -140 0
41 -140 0
-9 -41 140 0
10 42 -109 0
-10 42 109 0
10 -42 109 0
-10 -42 -109 0
10 -141 0
42 -141 0
-10 -42 141 0
11 43 -110 0
-11 43 110 0
11 -43 110 0
-11 -43 -110 0
11 -142 0
43 -142 0
-11 -43 142 0
12 44 -111 0
-12 44 111 0
12 -44 111 0
-12 -44 -111 0
12 -143 0
44 -143 0
-12 -44 143 0
13 45 -112 0
-13 45 112 0
13 -45 112 0
-13 -45 -112 0
13 -144 0
45 -144 0
-13 -45 144 0
14 46 -113 0
-14 46 113 0
14 -46 113 0
-14 -46 -113 0
14 -145 0
46 -145 0
-14 -46 145 0
15 47 -114 0
-15 47 114 0
15 -47 114 0
-15 -47 -114 0
15 -146 0
47 -146 0
-15 -47 146 0
16 48 -115 0
-16 48 115 0
16 -48 115 0
-16 -48 -115 0
16 -147 0
48 -147 0
-16 -48 147 0
17 49 -116 0
-17 49 116 0
17 -49 116 0
-17 -49 -116 0
17 -148 0
49 -148 0
-17 -49 148 0
18 50 -117 0
-18 50 117 0
18 -50 117 0
-18 -50 -117 0
18 -149 0
50 -149 0
-18 -50 149 0
19 51 -118 0
-19 51 118 0
19 -51 118 0
-19 -51 -118 0
19 -150 0
51 -150 0
-19 -51 150 0
20 52 -119 0
-20 52 119 0
20 -52 119 0
-20 -52 -119 0
20 -151 0
52 -151 0
-20 -52 151 0
21 53 -120 0
-21 53 120 0
21 -53 120 0
-21 -53 -120 0
21 -152 0
53 -152 0
-21 -53 152 0
22 54 -121 0
-22 54 121 0
22 -54 121 0
-22 -54 -121 0
22 -153 0
54 -153 0
-22 -54 153 0
23 55 -122 0
-23 55 122 0
23 -55 122 0
-23 -55 -122 0
23 -154 0
55 -154 0
-23 -55 154 0
24 56 -123 0
-24 56 123 0
24 -56 123 0
-24 -56 -123 0
24 -155 0
56 -155 0
-24 -56 155 0
25 57 -124 0
-25 57 124 0
25 -57 124 0
-25 -57 -124 0
25 -156 0
57 -156 0
-25 -57 156 0
26 58 -125 0
-26 58 125 0
26 -58 125 0
-26 -58 -125 0
26 -157 0
58 -157 0
-26 -58 157 0
27 59 -126 0
-27 59 126 0
27 -59 126 0
-27 -59 -126 0
27 -158 0
59 -158 0
-27 -59 158 0
28 60 -127 0
-28 60 127 0
28 -60 127 0
-28 -60 -127 0
28 -159 0
60 -159 0
-28 -60 159 0
29 61 -128 0
-29 61 128 0
29 -61 128 0
-29 -61 -128 0
29 -160 0
61 -160 0
-29 -61 160 0
30 62 -129 0
-30 62 129 0
30 -62 129 0
-30 -62 -129 0
30 -161 0
62 -161 0
-30 -62 161 0
31 63 -130 0
-31 63 130 0
31 -63 130 0
-31 -63 -130 0
31 -162 0
63 -162 0
-31 -63 162 0
32 64 -131 0
-32 64 131 0
32 -64 131 0
-32 -64 -131 0
32 -163 0
64 -163 0
-32 -64 163 0
98 -196 0
100 -196 0
-98 -100 196 0
98 -197 0
100 -197 0
101 -197 0
-98 -100 -101 197 0
132 -198 0
101 -198 0
-132 -101 198 0
98 -199 0
100 -199 0
101 -199 0
102 -199 0
-98 -100 -101 -102 199 0
132 -200 0
101 -200 0
102 -200 0
-132 -101 -102 200 0
133 -201 0
102 -201 0
-133 -102 201 0
98 -202 0
100 -202 0
101 -202 0
102 -202 0
103 -202 0
-98 -100 -101 -102 -103 202 0
132 -203 0
101 -203 0
102 -203 0
103 -203 0
-132 -101 -102 -103 203 0
133 -204 0
102 -204 0
103 -204 0
-133 -102 -103 204 0
134 -205 0
103 -205 0
-134 -103 205 0
-132 164 0
-196 164 0
132 196 -164 0
-133 165 0
-197 165 0
-198 165 0
133 197 198 -165 0
-134 166 0
-199 166 0
-200 166 0
-201 166 0
134 199 200 201 -166 0
-135 167 0
-202 167 0
-203 167 0
-204 167 0
-205 167 0
135 202 203 204 205 -167 0
167 -206 0
104 -206 0
-167 -104 206 0
167 -207 0
104 -207 0
105 -207 0
-167 -104 -105 207 0
136 -208 0
105 -208 0
-136 -105 208 0
167 -209 0
104 -209 0
105 -209 0
106 -209 0
-167 -104 -105 -106 209 0
136 -210 0
105 -210 0
106 -210 0
-136 -105 -106 210 0
137 -211 0
106 -211 0
-137 -106 211 0
167 -212 0
104 -212 0
105 -212 0
106 -212 0
107 -212 0
-167 -104 -105 -106 -107 212 0
136 -213 0
105 -213 0
106 -213 0
107 -213 0
-136 -105 -106 -107 213 0
137 -214 0
106 -214 0
107 -214 0
-137 -106 -107 214 0
138 -215 0
107 -215 0
-138 -107 215 0
-136 168 0
-206 168 0
136 206 -168 0
-137 169 0
-207 169 0
-208 169 0
137 207 208 -169 0
-138 170 0
-209 170 0
-210 170 0
-211 170 0
138 209 210 211 -170 0
-139 171 0
-212 171 0
-213 171 0
-214 171 0
-215 171 0
139 212 213 214 215 -171 0
171 -216 0
108 -216 0
-171 -108 216 0
171 -217 0
108 -217 0
109 -217 0
-171 -108 -109 217 0
140 -218 0
109 -218 0
-140 -109 218 0
171 -219 0
108 -219 0
109 -219 0
110 -219 0
-171 -108 -109 -110 219 0
140 -220 0
109 -220 0
110 -220 0
-140 -109 -110 220 0
141 -221 0
110 -221 0
-141 -110 221 0
171 -222 0
108 -222 0
109 -222 0
110 -222 0
111 -222 0
-171 -108 -109 -110 -111 222 0
140 -223 0
109 -223 0
110 -223 0
111 -223 0
-140 -109 -110 -111 223 0
141 -224 0
110 -224 0
111 -224 0
-141 -110 -111 224 0
142 -225 0
111 -225 0
-142 -111 225 0
-140 172 0
-216 172 0
140 216 -172 0
-141 173 0
-217 173 0
-218 173 0
141 217 218 -173 0
-142 174 0
-219 174 0
-220 174 0
-221 174 0
142 219 220 221 -174 0
-143 175 0
-222 175 0
-223 175 0
-224 175 0
-225 175 0
143 222 223 224 225 -175 0
175 -226 0
112 -226 0
-175 -112 226 0
175 -227 0
112 -227 0
113 -227 0
-175 -112 -113 227 0
144 -228 0
113 -228 0
-144 -113 228 0
175 -229 0
112 -229 0
113 -229 0
114 -229 0
-175 -112 -113 -114 229 0
144 -230 0
113 -230 0
114 -230 0
-144 -113 -114 230 0
145 -231 0
114 -231 0
-145 -114 231 0
175 -232 0
112 -232 0
113 -232 0
114 -232 0
115 -232 0
-175 -112 -113 -114 -115 232 0
144 -233 0
113 -233 0
114 -233 0
115 -233 0
-144 -113 -114 -115 233 0
145 -234 0
114 -234 0
115 -234 0
-145 -114 -115 234 0
146 -235 0
115 -235 0
-146 -115 235 0
-144 176 0
-226 176 0
144 226 -176 0
-145 177 0
-227 177 0
-228 177 0
145 227 228 -177 0
-146 178 0
-229 178 0
-230 178 0
-231 178 0
146 229 230 231 -178 0
-147 179 0
-232 179 0
-233 179 0
-234 179 0
-235 179 0
147 232 233 234 235 -179 0
179 -236 0
116 -236 0
-179 -116 236 0
179 -237 0
116 -237 0
117 -237 0
-179 -116 -117 237 0
148 -238 0
117 -238 0
-148 -117 238 0
179 -239 0
116 -239 0
117 -239 0
118 -239 0
-179 -116 -117 -118 239 0
148 -240 0
117 -240 0
118 -240 0
-148 -117 -118 240 0
149 -241 0
118 -241 0
-149 -118 241 0
179 -242 0
116 -242 0
117 -242 0
118 -242 0
119 -242 0
-179 -116 -117 -118 -119 242 0
148 -243 0
117 -243 0
118 -243 0
119 -243 0
-148 -117 -118 -119 243 0
149 -244 0
118 -244 0
119 -244 0
-149 -118 -119 244 0
150 -245 0
119 -245 0
-150 -119 245 0
-148 180 0
-236 180 0
148 236 -180 0
-149 181 0
-237 181 0
-238 181 0
149 237 238 -181 0
-150 182 0
-239 182 0
-240 182 0
-241 182 0
150 239 240 241 -182 0
-151 183 0
-242 183 0
-243 183 0
-244 183 0
-245 183 0
151 242 243 244 245 -183 0
183 -246 0
120 -246 0
-183 -120 246 0
183 -247 0
120 -247 0
121 -247 0
-183 -120 -121 247 0
152 -248 0
121 -248 0
-152 -121 248 0
183 -249 0
120 -249 0
121 -249 0
122 -249 0
-183 -120 -121 -122 249 0
152 -250 0
121 -250 0
122 -250 0
-152 -121 -122 250 0
153 -251 0
122 -251 0
-153 -122 251 0
183 -252 0
120 -252 0
121 -252 0
122 -252 0
123 -252 0
-183 -120 -121 -122 -123 252 0
152 -253 0
121 -253 0
122 -253 0
123 -253 0
-152 -121 -122 -123 253 0
153 -254 0
122 -254 0
123 -254 0
-153 -122 -123 254 0
154 -255 0
123 -255 0
-154 -123 255 0
-152 184 0
-246 184 0
152 246 -184 0
-153 185 0
-247 185 0
-248 185 0
153 247 248 -185 0
-154 186 0
-249 186 0
-250 186 0
-251 186 0
154 249 250 251 -186 0
-155 187 0
-252 187 0
-253 187 0
-254 187 0
-255 187 0
155 252 253 254 255 -187 0
187 -256 0
124 -256 0
-187 -124 256 0
187 -257 0
124 -257 0
125 -257 0
-187 -124 -125 257 0
156 -258 0
125 -258 0
-156 -125 258 0
187 -259 0
124 -259 0
125 -259 0
126 -259 0
-187 -124 -125 -126 259 0
156 -260 0
125 -260 0
126 -260 0
-156 -125 -126 260 0
157 -261 0
126 -261 0
-157 -126 261 0
187 -262 0
124 -262 0
125 -262 0
126 -262 0
127 -262 0
-187 -124 -125 -126 -127 262 0
156 -263 0
125 -263 0
126 -263 0
127 -263 0
-156 -125 -126 -127 263 0
157 -264 0
126 -264 0
127 -264 0
-157 -126 -127 264 0
158 -265 0
127 -265 0
-158 -127 265 0
-156 188 0
-256 188 0
156 256 -188 0
-157 189 0
-257 189 0
-258 189 0
157 257 258 -189 0
-158 190 0
-259 190 0
-260 190 0
-261 190 0
158 259 260 261 -190 0
-159 191 0
-262 191 0
-263 191 0
-264 191 0
-265 191 0
159 262 263 264 265 -191 0
191 -266 0
128 -266 0
-191 -128 266 0
191 -267 0
128 -267 0
129 -267 0
-191 -128 -129 267 0
160 -268 0
129 -268 0
-160 -129 268 0
191 -269 0
128 -269 0
129 -269 0
130 -269 0
-191 -128 -129 -130 269 0
160 -270 0
129 -270 0
130 -270 0
-160 -129 -130 270 0
161 -271 0
130 -271 0
-161 -130 271 0
191 -272 0
128 -272 0
129 -272 0
130 -272 0
131 -272 0
-191 -128 -129 -130 -131 272 0
160 -273 0
129 -273 0
130 -273 0
131 -273 0
-160 -129 -130 -131 273 0
161 -274 0
130 -274 0
131 -274 0
-161 -130 -131 274 0
162 -275 0
131 -275 0
-162 -131 275 0
-160 192 0
-266 192 0
160 266 -192 0
-161 193 0
-267 193 0
-268 193 0
161 267 268 -193 0
-162 194 0
-269 194 0
-270 194 0
-271 194 0
162 269 270 271 -194 0
-163 195 0
-272 195 0
-273 195 0
-274 195 0
-275 195 0
163 272 273 274 275 -195 0
100 98 -65 0
-100 98 65 0
100 -98 65 0
-100 -98 -65 0
101 164 -66 0
-101 164 66 0
101 -164 66 0
-101 -164 -66 0
102 165 -67 0
-102 165 67 0
102 -165 67 0
-102 -165 -67 0
103 166 -68 0
-103 166 68 0
103 -166 68 0
-103 -166 -68 0
104 167 -69 0
-104 167 69 0
104 -167 69 0
-104 -167 -69 0
105 168 -70 0
-105 168 70 0
105 -168 70 0
-105 -168 -70 0
106 169 -71 0
-106 169 71 0
106 -169 71 0
-106 -169 -71 0
107 170 -72 0
-107 170 72 0
107 -170 72 0
-107 -170 -72 0
108 171 -73 0
-108 171 73 0
108 -171 73 0
-108 -171 -73 0
109 172 -74 0
-109 172 74 0
109 -172 74 0
-109 -172 -74 0
110 173 -75 0
-110 173 75 0
110 -173 75 0
-110 -173 -75 0
111 174 -76 0
-111 174 76 0
111 -174 76 0
-111 -174 -76 0
112 175 -77 0
-112 175 77 0
112 -175 77 0
-112 -175 -77 0
113 176 -78 0
-113 176 78 0
113 -176 78 0
-113 -176 -78 0
114 177 -79 0
-114 177 79 0
114 -177 79 0
-114 -177 -79 0
115 178 -80 0
-115 178 80 0
115 -178 80 0
-115 -178 -80 0
116 179 -81 0
-116 179 81 0
116 -179 81 0
-116 -179 -81 0
117 180 -82 0
-117 180 82 0
117 -180 82 0
-117 -180 -82 0
118 181 -83 0
-118 181 83 0
118 -181 83 0
-118 -181 -83 0
119 182 -84 0
-119 182 84 0
119 -182 84 0
-119 -182 -84 0
120 183 -85 0
-120 183 85 0
120 -183 85 0
-120 -183 -85 0
121 184 -86 0
-121 184 86 0
121 -184 86 0
-121 -184 -86 0
122 185 -87 0
-122 185 87 0
122 -185 87 0
-122 -185 -87 0
123 186 -88 0
-123 186 88 0
123 -186 88 0
-123 -186 -88 0
124 187 -89 0
-124 187 89 0
124 -187 89 0
-124 -187 -89 0
125 188 -90 0
-125 188 90 0
125 -188 90 0
-125 -188 -90 0
126 189 -91 0
-126 189 91 0
126 -189 91 0
-126 -189 -91 0
127 190 -92 0
-127 190 92 0
127 -190 92 0
-127 -190 -92 0
128 191 -93 0
-128 191 93 0
128 -191 93 0
-128 -191 -93 0
129 192 -94 0
-129 192 94 0
129 -192 94 0
-129 -192 -94 0
130 193 -95 0
-130 193 95 0
130 -193 95 0
-130 -193 -95 0
131 194 -96 0
-131 194 96 0
131 -194 96 0
-131 -194 -96 0
195 -97 0
-195 97 0
